problems/csplib-prob001/CarSequencing-models/noch/O2/lingeling/model-random10-solution000001.eprime-solution
language ESSENCE' 1.0

letting car_Function1D be
        [3, 7, 3, 14, 6, 9, 14, 3, 7, 19, 7, 17, 3, 7, 3, 7, 3, 17, 3, 7, 3, 7, 3, 12, 14, 3, 7, 14, 3, 7, 3, 12, 4, 14,
         7, 10, 14, 15, 3, 7, 12, 3, 14, 3, 16, 3, 1, 17, 3, 7, 4, 7, 2, 3, 14, 5, 7, 3, 12, 14, 3, 7, 15, 10, 14, 3, 7,
         3, 1, 17, 3, 7, 3, 7, 14, 3, 7, 3, 14, 3, 14, 12, 3, 7, 7, 3, 12, 3, 7, 3, 15, 4, 12, 10, 14, 13, 17, 3, 15, 3,
         15, 3, 14, 9, 12, 7, 3, 14, 7, 4, 7, 12, 3, 7, 3, 14, 3, 7, 3, 7, 4, 12, 3, 7, 14, 13, 12, 10, 14, 7, 3, 17, 3,
         14, 3, 7, 12, 10, 15, 3, 17, 6, 7, 3, 14, 7, 10, 14, 3, 14, 11, 12, 3, 17, 14, 3, 18, 14, 3, 17, 3, 7, 7, 3,
         12, 4, 7, 8, 7, 19, 14, 3, 7, 3, 12, 3, 7, 3, 7, 10, 20, 3, 14, 14, 3, 14, 1, 16, 3, 14, 3, 7, 3, 12, 3, 7, 14,
         3, 7, 3; int(1..200)]
